Version identifier: 20.1.0.0 | 2020-11-10 | 9bedb6d68
Tried aggregator 2 times.
MIP Presolve eliminated 1898 rows and 1043 columns.
MIP Presolve modified 4662 coefficients.
Aggregator did 187 substitutions.
Reduced MIP has 2724 rows, 2085 columns, and 8940 nonzeros.
Reduced MIP has 343 binaries, 1742 generals, 0 SOSs, and 0 indicators.
Presolve time = 0.03 sec. (10.63 ticks)
Probing fixed 60 vars, tightened 651 bounds.
Probing time = 0.00 sec. (1.99 ticks)
Tried aggregator 1 time.
Detecting symmetries...
MIP Presolve eliminated 1170 rows and 60 columns.
MIP Presolve modified 117 coefficients.
Reduced MIP has 1554 rows, 2025 columns, and 5070 nonzeros.
Reduced MIP has 467 binaries, 1558 generals, 0 SOSs, and 0 indicators.
Presolve time = 0.01 sec. (5.73 ticks)
Probing time = 0.00 sec. (0.36 ticks)
Clique table members: 5.
MIP emphasis: balance optimality and feasibility.
MIP search method: dynamic search.
Parallel mode: deterministic, using up to 24 threads.
Root relaxation solution time = 0.02 sec. (4.43 ticks)

        Nodes                                         Cuts/
   Node  Left     Objective  IInf  Best Integer    Best Bound    ItCnt     Gap

      0     0        0.0000    67                      0.0000      460         
      0     0        0.0000    66                   Cuts: 143      545         
*     0+    0                           26.0000        0.0000           100.00%
      0     0        0.3750   172       26.0000     Cuts: 190      759   98.56%
      0     0        0.7500   199       26.0000      Cuts: 98      846   97.12%
*     0+    0                            9.0000        0.7500            91.67%
      0     0        cutoff              9.0000        9.0000      917    0.00%
Elapsed time = 0.67 sec. (104.57 ticks, tree = 0.01 MB, solutions = 2)

Implied bound cuts applied:  36
Flow cuts applied:  5
Mixed integer rounding cuts applied:  19
Zero-half cuts applied:  212
Lift and project cuts applied:  14
Gomory fractional cuts applied:  36

Root node processing (before b&c):
  Real time             =    0.67 sec. (104.72 ticks)
Parallel b&c, 24 threads:
  Real time             =    0.00 sec. (0.00 ticks)
  Sync time (average)   =    0.00 sec.
  Wait time (average)   =    0.00 sec.
                          ------------
Total (root+branch&cut) =    0.67 sec. (104.72 ticks)

Solution status = Optimal
Solution LB = 9
Solution UB = 9
Runtime = 0.672402 seconds
	Command being timed: "/home/min/git_repos/CS598MEBProject/CNT-ILP/build/cnt -s 2 ./output/k8_n30/simC_c1_k8_n30_u2_s1_del02.input-right.cnp"
	User time (seconds): 8.63
	System time (seconds): 0.11
	Percent of CPU this job got: 1204%
	Elapsed (wall clock) time (h:mm:ss or m:ss): 0:00.72
	Average shared text size (kbytes): 0
	Average unshared data size (kbytes): 0
	Average stack size (kbytes): 0
	Average total size (kbytes): 0
	Maximum resident set size (kbytes): 125072
	Average resident set size (kbytes): 0
	Major (requiring I/O) page faults: 0
	Minor (reclaiming a frame) page faults: 29058
	Voluntary context switches: 4464
	Involuntary context switches: 1348
	Swaps: 0
	File system inputs: 0
	File system outputs: 16
	Socket messages sent: 0
	Socket messages received: 0
	Signals delivered: 0
	Page size (bytes): 4096
	Exit status: 0
